%nprocshared=4
%mem=4
#P mp2  Opt 

1,3,5-hexatriene

0 1
C  -0.596800   0.306200   0.000100
C   0.596800  -0.306300   0.000000
C  -1.850300  -0.412700   0.000000
C   1.850200   0.412700  -0.000100
C  -3.044100   0.190800   0.000000
C   3.044200  -0.190800   0.000000
H  -0.650400   1.392700   0.000000
H   0.650500  -1.392800   0.000000
H  -1.813900  -1.498800  -0.000100
H   1.813800   1.498800  -0.000200
H  -3.954700  -0.399000  -0.000200
H  -3.143100   1.271200   0.000100
H   3.954700   0.399100  -0.000100
H   3.143100  -1.271200   0.000200



